c CNF file corresponding to a (partial) station packing problem.
p cnf 3892 229
1 2 3 4 5 6 7 8 9 10 11 12 13 14 0
-1 -2 0
-1 -3 0
-1 -4 0
-1 -5 0
-1 -6 0
-1 -7 0
-1 -8 0
-1 -9 0
-1 -10 0
-1 -11 0
-1 -12 0
-1 -13 0
-1 -14 0
-2 -3 0
-2 -4 0
-2 -5 0
-2 -6 0
-2 -7 0
-2 -8 0
-2 -9 0
-2 -10 0
-2 -11 0
-2 -12 0
-2 -13 0
-2 -14 0
-3 -4 0
-3 -5 0
-3 -6 0
-3 -7 0
-3 -8 0
-3 -9 0
-3 -10 0
-3 -11 0
-3 -12 0
-3 -13 0
-3 -14 0
-4 -5 0
-4 -6 0
-4 -7 0
-4 -8 0
-4 -9 0
-4 -10 0
-4 -11 0
-4 -12 0
-4 -13 0
-4 -14 0
-5 -6 0
-5 -7 0
-5 -8 0
-5 -9 0
-5 -10 0
-5 -11 0
-5 -12 0
-5 -13 0
-5 -14 0
-6 -7 0
-6 -8 0
-6 -9 0
-6 -10 0
-6 -11 0
-6 -12 0
-6 -13 0
-6 -14 0
-7 -8 0
-7 -9 0
-7 -10 0
-7 -11 0
-7 -12 0
-7 -13 0
-7 -14 0
-8 -9 0
-8 -10 0
-8 -11 0
-8 -12 0
-8 -13 0
-8 -14 0
-9 -10 0
-9 -11 0
-9 -12 0
-9 -13 0
-9 -14 0
-10 -11 0
-10 -12 0
-10 -13 0
-10 -14 0
-11 -12 0
-11 -13 0
-11 -14 0
-12 -13 0
-12 -14 0
-13 -14 0
3876 3877 3878 3879 3880 3881 3882 3883 3884 3885 3886 3887 3888 3889 3890 3891 3892 0
-3876 -3877 0
-3876 -3878 0
-3876 -3879 0
-3876 -3880 0
-3876 -3881 0
-3876 -3882 0
-3876 -3883 0
-3876 -3884 0
-3876 -3885 0
-3876 -3886 0
-3876 -3887 0
-3876 -3888 0
-3876 -3889 0
-3876 -3890 0
-3876 -3891 0
-3876 -3892 0
-3877 -3878 0
-3877 -3879 0
-3877 -3880 0
-3877 -3881 0
-3877 -3882 0
-3877 -3883 0
-3877 -3884 0
-3877 -3885 0
-3877 -3886 0
-3877 -3887 0
-3877 -3888 0
-3877 -3889 0
-3877 -3890 0
-3877 -3891 0
-3877 -3892 0
-3878 -3879 0
-3878 -3880 0
-3878 -3881 0
-3878 -3882 0
-3878 -3883 0
-3878 -3884 0
-3878 -3885 0
-3878 -3886 0
-3878 -3887 0
-3878 -3888 0
-3878 -3889 0
-3878 -3890 0
-3878 -3891 0
-3878 -3892 0
-3879 -3880 0
-3879 -3881 0
-3879 -3882 0
-3879 -3883 0
-3879 -3884 0
-3879 -3885 0
-3879 -3886 0
-3879 -3887 0
-3879 -3888 0
-3879 -3889 0
-3879 -3890 0
-3879 -3891 0
-3879 -3892 0
-3880 -3881 0
-3880 -3882 0
-3880 -3883 0
-3880 -3884 0
-3880 -3885 0
-3880 -3886 0
-3880 -3887 0
-3880 -3888 0
-3880 -3889 0
-3880 -3890 0
-3880 -3891 0
-3880 -3892 0
-3881 -3882 0
-3881 -3883 0
-3881 -3884 0
-3881 -3885 0
-3881 -3886 0
-3881 -3887 0
-3881 -3888 0
-3881 -3889 0
-3881 -3890 0
-3881 -3891 0
-3881 -3892 0
-3882 -3883 0
-3882 -3884 0
-3882 -3885 0
-3882 -3886 0
-3882 -3887 0
-3882 -3888 0
-3882 -3889 0
-3882 -3890 0
-3882 -3891 0
-3882 -3892 0
-3883 -3884 0
-3883 -3885 0
-3883 -3886 0
-3883 -3887 0
-3883 -3888 0
-3883 -3889 0
-3883 -3890 0
-3883 -3891 0
-3883 -3892 0
-3884 -3885 0
-3884 -3886 0
-3884 -3887 0
-3884 -3888 0
-3884 -3889 0
-3884 -3890 0
-3884 -3891 0
-3884 -3892 0
-3885 -3886 0
-3885 -3887 0
-3885 -3888 0
-3885 -3889 0
-3885 -3890 0
-3885 -3891 0
-3885 -3892 0
-3886 -3887 0
-3886 -3888 0
-3886 -3889 0
-3886 -3890 0
-3886 -3891 0
-3886 -3892 0
-3887 -3888 0
-3887 -3889 0
-3887 -3890 0
-3887 -3891 0
-3887 -3892 0
-3888 -3889 0
-3888 -3890 0
-3888 -3891 0
-3888 -3892 0
-3889 -3890 0
-3889 -3891 0
-3889 -3892 0
-3890 -3891 0
-3890 -3892 0
-3891 -3892 0
